(set-logic ALL)
(declare-const BAV1 Bool)
(declare-const BAV2 Bool)
(declare-const GEN4 Int)
(declare-const GEN3 Int)
(declare-const GEN2 Int)
(declare-const GEN1 Int)
(set-option :bv-div-zero-const false)
(set-option :fmf-bound-int true)
(set-option :uf-ho true)
(declare-fun _substvar_20_ () Bool)
(declare-sort S4 0)
(assert (forall ((q15 S4)(q16 (_ BitVec 20))(q17 (_ BitVec 13))) (xor (= (_ bv0 13) (_ bv0 13) q17 (bvsrem (_ bv0 13) (_ bv0 13)) q17) _substvar_20_ true)))
(assert (= BAV1 (forall ((q15 S4)(q16 (_ BitVec 20))(q17 (_ BitVec 13))) (xor (= (_ bv0 13) (_ bv0 13) q17 (bvsrem (_ bv0 13) (_ bv0 13)) q17) _substvar_20_ true))))
(assert (= BAV2 (forall ((q15 S4)(q16 (_ BitVec 20))(q17 (_ BitVec 13))) (= (_ bv0 13) (_ bv0 13) q17 (bvsrem (_ bv0 13) (_ bv0 13)) q17))))
(check-sat)
(get-model)
(exit)